
List of user-set options:

                                    Name   Value                used
                           compl_inf_tol = 1                     yes
                         constr_viol_tol = 1                     yes
                            dual_inf_tol = 1000                  yes
                           linear_solver = ma97                  yes
                              ma86_small = 1e-30                  no
                                  ma86_u = 0.0001                 no
                              ma97_order = best                  yes
                              ma97_small = 1e-30                 yes
                            ma97_switch1 = at_start              yes
                            ma97_switch2 = od_hd_reuse           yes
                                  ma97_u = 1e-06                 yes
                               ma97_umax = 0.5                   yes
                                max_iter = 2000                  yes
                    max_refinement_steps = 20                    yes
                    min_refinement_steps = 5                     yes
                                 mu_init = 1e-06                 yes
           mu_superlinear_decrease_power = 1.25                  yes
                   nlp_scaling_min_value = 1e-08                 yes
                        option_file_name = Preset_Case:_280_NCP.opt  yes
                             output_file = ./tmp/Preset_Case:_280_NCP.output  yes
                      print_user_options = yes                   yes
        required_infeasibility_reduction = 1                      no
                                     tol = 1e-08                 yes
                   warm_start_bound_frac = 1e-20                 yes
                   warm_start_bound_push = 1e-20                 yes
                   warm_start_init_point = yes                   yes
              warm_start_mult_bound_push = 1e-20                 yes
                warm_start_mult_init_max = 1e+40                 yes
             warm_start_slack_bound_frac = 1e-20                 yes
             warm_start_slack_bound_push = 1e-20                 yes

******************************************************************************
This program contains Ipopt, a library for large-scale nonlinear optimization.
 Ipopt is released as open source code under the Eclipse Public License (EPL).
         For more information visit http://projects.coin-or.org/Ipopt
******************************************************************************

This is Ipopt version 3.12.10, running with linear solver ma97.

Number of nonzeros in equality constraint Jacobian...:   117140
Number of nonzeros in inequality constraint Jacobian.:      213
Number of nonzeros in Lagrangian Hessian.............:    47462

Total number of variables............................:    29971
                     variables with only lower bounds:    11312
                variables with lower and upper bounds:    15132
                     variables with only upper bounds:        0
Total number of equality constraints.................:    29864
Total number of inequality constraints...............:       25
        inequality constraints with only lower bounds:        4
   inequality constraints with lower and upper bounds:        0
        inequality constraints with only upper bounds:       21

iter    objective    inf_pr   inf_du lg(mu)  ||d||  lg(rg) alpha_du alpha_pr  ls
   0 -3.0346734e-02 1.92e-01 3.29e+02  -6.0 0.00e+00    -  0.00e+00 0.00e+00   0
In iteration 0, 5 Slacks too small, adjusting variable bounds
   1 -3.0346734e-02 1.92e-01 1.38e+03  -6.0 8.05e+03   0.0 1.31e-07 1.48e-14f  1
   2 -3.0346734e-02 1.92e-01 1.38e+03  -6.0 3.74e+02  -0.5 9.00e-07 2.26e-09f  1
   3 -3.0346736e-02 1.92e-01 1.38e+03  -6.0 5.43e+02  -1.0 4.01e-06 9.31e-08f  1
   4 -3.0346769e-02 1.92e-01 1.38e+03  -6.0 5.37e+02  -0.5 1.07e-06 1.63e-06f  1
   5 -3.0346840e-02 1.92e-01 1.38e+03  -6.0 5.40e+02  -1.0 1.02e-05 3.66e-06h  1
   6 -3.0346954e-02 1.92e-01 1.38e+03  -6.0 5.39e+02  -0.6 6.66e-06 5.38e-06f  1
   7 -3.0347541e-02 1.92e-01 1.38e+03  -6.0 5.41e+02  -1.1 3.00e-05 3.32e-05f  1
   8 -3.0347837e-02 1.92e-01 1.38e+03  -6.0 5.39e+02  -0.6 9.19e-06 1.37e-05h  1
   9 -3.0348097e-02 1.92e-01 3.09e+03  -6.0 5.38e+02  -0.2 1.50e-08 1.18e-05h  1
iter    objective    inf_pr   inf_du lg(mu)  ||d||  lg(rg) alpha_du alpha_pr  ls
  10 -3.0349577e-02 1.92e-01 7.05e+03  -6.0 5.38e+02  -0.7 2.13e-05 6.61e-05f  1
  11 -3.0350158e-02 1.92e-01 4.05e+03  -6.0 5.38e+02  -0.3 7.27e-05 2.57e-05h  1
  12 -3.0355949e-02 1.92e-01 2.47e+04  -6.0 5.38e+02  -0.7 5.20e-04 2.58e-04f  1
  13 -3.0366703e-02 1.92e-01 2.05e+05  -6.0 5.38e+02  -0.3 1.34e-03 4.75e-04h  1
  14 -3.0526764e-02 1.90e-01 1.64e+05  -6.0 5.38e+02  -0.8 1.83e-03 7.15e-03f  1
  15 -3.0576995e-02 1.90e-01 5.73e+05  -6.0 5.40e+02  -0.4 2.81e-05 2.26e-03f  1
  16 -3.0611110e-02 1.79e-01 6.31e+05  -6.0 4.50e+02  -0.8 4.83e-07 1.85e-03f  1
  17r-3.0611110e-02 1.79e-01 1.00e+03  -0.7 0.00e+00  -0.4 0.00e+00 3.12e-09R  2
  18r-3.0617155e-02 1.79e-01 1.89e+03  -0.7 5.84e+04    -  1.94e-07 5.23e-08f  1
  19r-3.0617155e-02 1.79e-01 9.99e+02  -0.7 0.00e+00    -  0.00e+00 2.75e-07R  2
iter    objective    inf_pr   inf_du lg(mu)  ||d||  lg(rg) alpha_du alpha_pr  ls
  20r-3.0617907e-02 1.79e-01 1.09e+03  -0.7 8.32e+03    -  1.34e-06 7.48e-08f  1
  21 -3.0617495e-02 1.79e-01 2.35e+03  -6.0 6.39e+02    -  3.37e-02 1.43e-05h  1
  22 -3.0617435e-02 1.79e-01 2.83e+04  -6.0 6.01e+02    -  1.51e-02 2.59e-06f  2
  23 -3.0541935e-02 1.79e-01 3.28e+04  -6.0 5.92e+02    -  1.51e-02 3.20e-03h  4
  24 -3.0477190e-02 1.78e-01 3.84e+04  -6.0 6.00e+02    -  2.05e-02 2.70e-03h  5
  25 -3.0408780e-02 1.78e-01 5.15e+04  -6.0 6.09e+02    -  5.06e-02 2.81e-03h  5
  26 -3.0278165e-02 1.76e-01 5.94e+04  -6.0 6.26e+02    -  5.02e-02 5.38e-03h  4
  27 -3.0153350e-02 1.75e-01 6.65e+04  -6.0 6.45e+02    -  6.72e-02 5.21e-03h  4
  28 -3.0043031e-02 1.74e-01 7.08e+04  -6.0 6.71e+02    -  6.81e-02 4.95e-03h  4
  29 -2.9954000e-02 1.73e-01 7.46e+04  -6.0 7.02e+02    -  8.25e-02 4.57e-03h  4
iter    objective    inf_pr   inf_du lg(mu)  ||d||  lg(rg) alpha_du alpha_pr  ls
  30 -2.9894412e-02 1.72e-01 7.82e+04  -6.0 7.47e+02    -  9.21e-02 3.97e-03h  4
  31 -2.9862776e-02 1.72e-01 8.19e+04  -6.0 8.08e+02    -  1.00e-01 3.37e-03h  4
  32 -2.9760087e-02 1.67e-01 8.30e+04  -6.0 8.86e+02    -  1.06e-01 2.58e-02w  1
  33 -2.9575687e-02 1.64e-01 4.56e+05  -6.0 9.58e+02    -  9.31e-03 2.84e-02w  1
  34 -2.8927751e-02 2.35e-01 5.24e+07  -6.0 8.86e+02    -  3.89e-04 6.36e-02w  1
  35 -2.9849940e-02 1.71e-01 8.58e+04  -6.0 1.03e+03    -  1.06e-01 3.22e-03h  3
  36 -2.9848836e-02 1.71e-01 2.81e+05  -6.0 9.80e+02    -  1.19e-01 2.42e-03h  5
  37 -2.9852977e-02 1.71e-01 6.34e+05  -6.0 1.08e+03    -  1.13e-01 1.30e-03h  7
  38 -2.9871125e-02 1.70e-01 1.22e+06  -6.0 1.16e+03    -  1.51e-01 2.68e-03h  6
  39 -2.9883243e-02 1.70e-01 1.68e+06  -6.0 1.37e+03    -  1.07e-01 1.14e-03h  7
iter    objective    inf_pr   inf_du lg(mu)  ||d||  lg(rg) alpha_du alpha_pr  ls
  40 -2.9910234e-02 1.70e-01 2.19e+06  -6.0 1.53e+03    -  1.16e-01 2.12e-03h  6
  41 -2.9939131e-02 1.70e-01 2.49e+06  -6.0 1.66e+03    -  6.92e-02 2.00e-03h  6
  42 -3.1521237e-02 5.71e-01 2.06e+06  -6.0 1.59e+03    -  6.54e-03 7.75e-02h  1
  43 -3.1635496e-02 5.65e-01 1.98e+06  -6.0 1.32e+03    -  9.64e-02 9.01e-03h  1
  44 -3.3058309e-02 1.01e+00 1.73e+06  -6.0 1.30e+03    -  1.41e-01 1.07e-01h  1
  45 -3.3044435e-02 1.01e+00 1.30e+06  -6.0 1.12e+03    -  8.90e-02 5.48e-04h  1
  46 -3.3038693e-02 1.00e+00 8.57e+05  -6.0 1.29e+03    -  1.36e-01 1.03e-02h  4
  47 -3.3274558e-02 1.04e+00 7.35e+05  -6.0 1.50e+03    -  6.72e-02 2.96e-02h  1
  48r-3.3274558e-02 1.04e+00 1.00e+03   0.0 0.00e+00    -  0.00e+00 2.82e-07R  3
  49r-3.3229704e-02 1.04e+00 8.15e+03   0.0 6.16e+03    -  3.86e-06 1.58e-06f  1
iter    objective    inf_pr   inf_du lg(mu)  ||d||  lg(rg) alpha_du alpha_pr  ls
  50 -3.3229567e-02 1.04e+00 1.83e+05  -6.0 5.81e+02    -  2.30e-03 4.57e-06h  2
  51 -3.3164058e-02 1.03e+00 6.69e+07  -6.0 5.90e+02    -  5.82e-06 2.12e-03h  1
  52 -3.3074356e-02 1.03e+00 6.67e+07  -6.0 5.91e+02    -  2.63e-03 2.95e-03h  1
  53 -3.2878509e-02 1.02e+00 6.62e+07  -6.0 5.87e+02    -  5.00e-04 6.61e-03h  1
  54 -3.2796398e-02 1.02e+00 6.60e+07  -6.0 5.28e+02    -  1.35e-03 3.52e-03h  1
  55 -3.2775496e-02 1.02e+00 6.59e+07  -6.0 5.59e+02    -  1.97e-02 8.03e-04h  1
  56 -3.2466460e-02 1.01e+00 6.52e+07  -6.0 5.91e+02    -  1.62e-03 1.11e-02h  1
  57 -3.2421232e-02 1.01e+00 6.51e+07  -6.0 5.48e+02    -  1.03e-01 1.88e-03h  1
  58 -3.2367792e-02 1.01e+00 6.49e+07  -6.0 4.70e+02    -  6.86e-02 2.10e-03h  1
  59 -3.0344680e-02 9.52e-01 5.97e+07  -6.0 4.65e+02    -  1.28e-01 8.01e-02h  1
iter    objective    inf_pr   inf_du lg(mu)  ||d||  lg(rg) alpha_du alpha_pr  ls
  60r-3.0344680e-02 9.52e-01 1.00e+03  -0.0 0.00e+00    -  0.00e+00 3.31e-07R  2
  61r-3.0311767e-02 9.50e-01 7.11e+03  -0.0 6.02e+03    -  4.30e-06 1.77e-06f  1
  62 -3.0311577e-02 9.50e-01 3.36e+06  -6.0 4.11e+02    -  4.44e-02 1.12e-05h  1
  63 -3.0290723e-02 9.48e-01 4.72e+08  -6.0 7.11e+02    -  1.27e-05 1.79e-03h  1
  64 -3.0165281e-02 9.42e-01 4.69e+08  -6.0 4.15e+02    -  3.72e-03 7.08e-03h  1
  65r-3.0165281e-02 9.42e-01 1.00e+03  -0.0 0.00e+00    -  0.00e+00 3.33e-07R  4
  66r-3.0165276e-02 9.42e-01 1.00e+03  -0.0 9.66e+03    -  5.54e-08 6.63e-10f  2
  67r-3.0165276e-02 9.42e-01 9.99e+02  -0.0 0.00e+00    -  0.00e+00 3.82e-07R  2
  68r-3.0165223e-02 9.42e-01 9.99e+02  -0.0 9.29e+03    -  4.40e-07 1.57e-08f  1
  69 -3.0164842e-02 9.42e-01 3.03e+05  -6.0 3.95e+02    -  5.56e-02 2.46e-05h  1
iter    objective    inf_pr   inf_du lg(mu)  ||d||  lg(rg) alpha_du alpha_pr  ls
  70 -3.0157226e-02 9.42e-01 1.73e+06  -6.0 6.01e+02    -  4.39e-05 2.51e-04h  1
  71 -3.0001996e-02 9.38e-01 1.73e+06  -6.0 6.95e+02    -  1.18e-02 3.93e-03h  1
  72 -2.9814631e-02 9.34e-01 1.72e+06  -6.0 6.88e+02    -  4.34e-03 4.76e-03h  1
  73 -2.9323932e-02 9.26e-01 1.70e+06  -6.0 8.08e+02    -  5.19e-02 1.14e-02h  1
  74 -2.8264861e-02 9.21e-01 1.65e+06  -6.0 8.74e+02    -  2.45e-02 2.61e-02h  1
  75 -2.8250823e-02 9.20e-01 1.65e+06  -6.0 9.27e+02    -  8.10e-02 7.91e-04h  1
  76 -2.8152592e-02 9.16e-01 1.64e+06  -6.0 9.54e+02    -  1.14e-01 5.42e-03h  1
  77 -2.7621327e-02 9.17e-01 2.18e+06  -6.0 9.69e+02    -  1.60e-01 2.87e-02h  2
  78 -2.6821883e-02 9.33e-01 2.04e+06  -6.0 9.13e+02    -  3.04e-02 4.24e-02h  1
  79 -2.6092657e-02 9.35e-01 1.95e+06  -6.0 8.16e+02    -  3.93e-02 4.16e-02h  3
iter    objective    inf_pr   inf_du lg(mu)  ||d||  lg(rg) alpha_du alpha_pr  ls
  80 -2.5486569e-02 9.28e-01 2.24e+06  -6.0 7.38e+02    -  1.29e-01 3.92e-02h  3
  81 -2.5265252e-02 9.18e-01 2.61e+06  -6.0 7.15e+02    -  1.31e-01 1.65e-02h  4
  82 -2.5171726e-02 9.12e-01 3.17e+06  -6.0 7.12e+02    -  2.22e-01 7.55e-03h  5
  83 -2.5131020e-02 9.09e-01 3.21e+06  -6.0 7.26e+02    -  4.05e-02 3.33e-03h  6
  84 -2.5119307e-02 9.08e-01 3.28e+06  -6.0 7.26e+02    -  4.88e-02 9.62e-04h  8
  85 -2.5114085e-02 9.07e-01 3.32e+06  -6.0 7.36e+02    -  3.15e-02 4.26e-04h  9
  86 -2.4918263e-02 8.97e-01 3.31e+06  -6.0 7.42e+02    -  5.63e-02 1.59e-02h  4
  87 -2.4747234e-02 8.87e-01 3.28e+06  -6.0 7.48e+02    -  3.58e-02 1.46e-02h  4
  88 -2.4449816e-02 8.73e-01 3.20e+06  -6.0 7.49e+02    -  3.01e-02 2.64e-02h  3
  89 -2.3598834e-02 2.34e+00 2.88e+06  -6.0 7.42e+02    -  2.17e-02 8.24e-02w  1
iter    objective    inf_pr   inf_du lg(mu)  ||d||  lg(rg) alpha_du alpha_pr  ls
  90 -2.3591394e-02 2.34e+00 2.87e+06  -6.0 7.24e+02    -  1.44e-04 4.50e-04w  1
  91 -2.3378042e-02 6.72e+00 2.70e+06  -6.0 7.49e+02    -  8.61e-03 6.80e-02w  1
  92 -2.4237070e-02 8.60e-01 3.14e+06  -6.0 4.14e+02  -0.9 2.17e-02 2.06e-02h  2
  93 -2.4085309e-02 9.08e-01 3.10e+06  -6.0 7.35e+02    -  3.02e-02 1.59e-02h  3
  94 -2.3854159e-02 1.03e+00 3.02e+06  -6.0 7.30e+02    -  2.16e-02 2.50e-02h  2
  95 -2.3693019e-02 1.10e+00 2.96e+06  -6.0 7.16e+02    -  1.45e-02 1.90e-02h  1
  96 -2.3667815e-02 1.10e+00 2.96e+06  -6.0 7.05e+02    -  5.72e-03 2.54e-03h  1
  97 -2.1840502e-02 1.13e+00 2.91e+06  -6.0 7.04e+02    -  1.48e-04 1.25e-02h  2
  98 -2.1175321e-02 1.24e+00 2.86e+06  -6.0 6.90e+02    -  1.99e-02 1.84e-02H  1
  99 -2.1151550e-02 1.28e+00 2.80e+06  -6.0 7.09e+02    -  5.38e-03 1.64e-02h  4
iter    objective    inf_pr   inf_du lg(mu)  ||d||  lg(rg) alpha_du alpha_pr  ls
 100 -2.0849555e-02 1.14e+00 2.60e+06  -6.0 9.45e+02    -  3.53e-03 3.69e-02h  3
 101 -2.0799275e-02 1.14e+00 1.50e+06  -6.0 3.65e+02  -1.4 2.63e-03 4.54e-03h  1
 102 -1.6891261e-02 1.09e+00 2.55e+06  -6.0 3.70e+02  -1.8 6.39e-03 2.56e-02h  1
 103 -1.9715622e-02 1.03e+00 9.60e+06  -6.0 3.68e+02  -2.3 1.78e-01 3.97e-02h  1
 104 -1.9562011e-02 1.02e+00 4.98e+06  -6.0 3.59e+02  -1.9 4.66e-03 2.48e-02h  1
 105 -1.8381872e-02 1.19e+00 6.89e+06  -6.0 3.71e+02  -2.4 6.10e-02 2.56e-02h  2
 106 -1.5668723e-02 1.18e+00 4.95e+06  -6.0 3.36e+02  -1.9 1.36e-02 2.29e-02h  2
 107 -2.0014839e-02 1.18e+00 5.74e+06  -6.0 3.38e+02  -2.4 8.72e-02 2.73e-03h  1
 108 -1.9232944e-02 1.16e+00 2.98e+06  -6.0 3.27e+02  -2.0 8.12e-06 1.50e-02h  1
 109 -1.9980484e-02 1.16e+00 3.95e+07  -6.0 3.51e+02  -2.5 4.72e-01 7.98e-04h  1
iter    objective    inf_pr   inf_du lg(mu)  ||d||  lg(rg) alpha_du alpha_pr  ls
 110 -1.9457831e-02 9.11e-01 3.90e+07  -6.0 1.17e+03  -2.9 2.65e-02 1.97e-02h  2
 111 -1.8884667e-02 8.70e-01 5.62e+07  -6.0 3.90e+02  -2.5 3.56e-01 6.08e-02h  1
 112 -1.8035686e-02 9.14e-01 6.42e+07  -6.0 3.17e+02  -2.1 1.88e-01 1.04e-01h  2
 113 -9.4762436e-03 1.20e+00 1.73e+07  -6.0 2.49e+02  -1.7 1.06e-02 1.06e-01h  1
 114  6.0865555e-03 1.27e+00 1.73e+07  -6.0 1.89e+02  -1.2 8.12e-03 1.42e-02h  1
 115  9.8707345e-03 1.27e+00 1.73e+07  -6.0 2.26e+02  -1.7 1.40e-02 1.91e-03h  1
 116  4.0901714e-03 1.26e+00 3.83e+07  -6.0 8.41e+02  -2.2 4.28e-02 6.96e-03h  3
 117  1.6446343e-01 1.15e+00 2.20e+07  -6.0 2.23e+02  -1.8 1.50e-02 8.73e-02h  1
 118  2.1976780e-01 1.14e+00 4.58e+07  -6.0 1.76e+02  -1.3 4.85e-02 8.27e-03h  1
 119  2.2419089e-01 1.13e+00 1.79e+08  -6.0 2.07e+02  -1.8 2.87e-01 3.89e-03h  1
iter    objective    inf_pr   inf_du lg(mu)  ||d||  lg(rg) alpha_du alpha_pr  ls
 120  8.1729682e-01 9.97e-01 1.03e+08  -6.0 2.14e+02  -1.4 5.48e-02 1.16e-01h  1
 121  1.1267688e+00 6.54e-01 4.43e+07  -6.0 1.94e+02  -1.9 2.59e-01 3.18e-01h  1
 122  2.3553770e+00 4.22e-01 3.39e+08  -6.0 1.13e+02  -1.4 1.13e-06 3.44e-01h  1
 123  2.3538303e+00 4.22e-01 9.69e+07  -6.0 1.52e+03  -1.9 6.34e-02 2.89e-04h  1
 124  2.1285376e+00 4.04e-01 3.47e+08  -6.0 5.14e+01  -2.4 5.38e-01 4.08e-02h  1
 125 -1.5245157e-02 4.68e-01 1.91e+08  -6.0 1.12e+02  -2.9 1.57e-01 3.36e-01f  1
 126 -1.5246222e-02 4.68e-01 2.04e+08  -6.0 1.40e+02  -3.4 1.74e-01 3.50e-06h  2
 127 -1.5246715e-02 4.68e-01 3.14e+08  -6.0 4.75e+01   0.7 2.16e-08 7.52e-04h  1
 128 -1.5242435e-02 4.66e-01 2.86e+08  -6.0 7.74e+01   0.2 4.98e-03 3.18e-03h  1
 129 -1.5242316e-02 4.66e-01 3.16e+08  -6.0 5.25e+01   0.6 5.94e-05 2.40e-04h  1
iter    objective    inf_pr   inf_du lg(mu)  ||d||  lg(rg) alpha_du alpha_pr  ls
 130 -1.5266293e-02 4.58e-01 6.89e+08  -6.0 3.80e+01   0.2 3.09e-07 1.66e-02h  1
 131 -1.5427268e-02 4.29e-01 1.29e+09  -6.0 4.70e+01  -0.3 2.17e-02 8.73e-02h  1
 132 -1.5718026e-02 3.86e-01 1.70e+09  -6.0 5.50e+01  -0.8 1.90e-02 8.37e-02h  1
 133r-1.5718026e-02 3.86e-01 1.00e+03  -0.7 0.00e+00  -0.4 0.00e+00 5.60e-08R  2
 134r-1.5715937e-02 3.86e-01 1.76e+04  -0.7 5.41e+03    -  4.37e-05 4.59e-07f  1
 135 -1.5715939e-02 3.86e-01 2.75e+03  -6.0 2.49e+01    -  8.80e-02 5.00e-05h  1
 136 -1.5708128e-02 3.82e-01 1.13e+04  -6.0 7.20e+01    -  5.34e-04 9.86e-03h  1
 137 -1.5695685e-02 2.86e-01 1.27e+04  -6.0 2.54e+01    -  6.95e-03 2.55e-01h  1
 138 -1.5696583e-02 2.67e-01 7.77e+03  -6.0 1.95e+01    -  3.21e-01 6.53e-02h  1
 139 -1.5721086e-02 1.05e-01 7.97e+03  -6.0 1.83e+01    -  6.15e-01 9.31e-01h  1
iter    objective    inf_pr   inf_du lg(mu)  ||d||  lg(rg) alpha_du alpha_pr  ls
 140 -1.5836994e-02 1.12e-01 4.08e+06  -6.0 5.84e+00    -  1.07e-01 1.00e+00h  1
 141 -1.5940485e-02 6.06e-02 4.57e+05  -6.0 5.02e+00    -  2.67e-01 1.00e+00h  1
 142 -1.5952807e-02 3.08e-05 6.68e+04  -6.0 3.38e-01    -  8.17e-01 1.00e+00h  1
 143 -1.6051090e-02 9.98e-05 3.87e+03  -6.0 1.89e+00    -  9.42e-01 1.00e+00h  1
 144 -1.6868497e-02 1.58e-01 3.58e+03  -6.0 7.69e+01    -  7.59e-02 2.35e-01h  1
 145 -1.7090371e-02 3.77e-02 2.41e+03  -6.0 3.60e+01    -  7.25e-01 8.02e-01f  1
 146 -1.8283238e-02 2.21e-01 1.79e+04  -6.0 1.05e+02    -  7.79e-04 3.42e-01h  1
 147 -2.0820453e-02 5.65e-01 1.58e+04  -6.0 1.05e+02    -  8.35e-02 7.06e-01h  1
 148 -2.1103936e-02 5.27e-01 1.41e+04  -6.0 1.15e+02    -  1.73e-01 6.72e-02h  1
 149 -2.3547921e-02 6.53e-01 8.57e+03  -6.0 1.50e+02    -  1.76e-01 4.53e-01h  1
iter    objective    inf_pr   inf_du lg(mu)  ||d||  lg(rg) alpha_du alpha_pr  ls
 150 -2.6115758e-02 8.08e-01 8.42e+03  -6.0 3.79e+02    -  2.20e-01 1.58e-01h  1
 151 -3.2211072e-02 1.49e+00 6.42e+03  -6.0 3.81e+02    -  4.41e-02 3.13e-01h  1
 152 -3.3723745e-02 1.30e+00 5.10e+03  -6.0 3.13e+02    -  2.35e-01 1.04e-01h  1
 153 -3.6111081e-02 1.19e+00 3.07e+03  -6.0 5.25e+02    -  5.77e-02 8.79e-02h  1
 154 -3.7914689e-02 1.10e+00 5.11e+06  -6.0 5.35e+02    -  3.17e-04 5.46e-02h  1
 155 -4.5010920e-02 9.32e-01 3.93e+06  -6.0 6.28e+02    -  5.12e-02 2.31e-01h  1
 156 -4.7716129e-02 8.46e-01 3.59e+06  -6.0 5.87e+02    -  9.76e-02 8.65e-02h  1
 157 -4.8124869e-02 5.89e-01 2.53e+06  -6.0 2.05e+02    -  7.23e-02 2.96e-01h  1
 158 -4.8998586e-02 5.33e-01 2.29e+06  -6.0 1.42e+02    -  1.84e-03 9.47e-02f  1
 159 -4.9770171e-02 4.97e-01 2.12e+06  -6.0 2.58e+02    -  4.45e-02 7.24e-02h  1
iter    objective    inf_pr   inf_du lg(mu)  ||d||  lg(rg) alpha_du alpha_pr  ls
 160 -5.4514986e-02 1.98e+00 1.15e+06  -6.0 3.05e+02    -  2.15e-01 4.58e-01h  1
 161 -5.6218318e-02 1.49e+00 9.51e+05  -6.0 3.52e+02    -  1.85e-01 1.73e-01h  1
 162 -5.6811830e-02 1.36e+00 8.73e+05  -6.0 2.84e+02    -  1.84e-01 8.26e-02h  1
 163 -5.7604261e-02 1.21e+00 7.81e+05  -6.0 3.70e+02    -  3.20e-01 1.04e-01h  1
 164 -6.0786318e-02 8.07e-01 5.17e+05  -6.0 4.89e+02    -  1.04e-01 3.38e-01h  1
 165 -6.2460293e-02 8.41e-01 4.39e+05  -6.0 5.82e+02    -  5.18e-01 1.51e-01h  1
 166 -6.2461267e-02 8.33e-01 4.34e+05  -6.0 2.66e-01  -0.9 1.64e-02 1.00e-02h  1
 167 -6.2477302e-02 8.33e-01 4.34e+05  -6.0 5.81e+03    -  1.43e-01 5.09e-04h  1
 168 -6.2475473e-02 8.21e-01 4.28e+05  -6.0 7.83e-01  -1.3 3.18e-05 1.44e-02h  1
 169 -6.2479196e-02 7.69e-01 4.01e+05  -6.0 4.92e-01  -1.8 7.17e-02 6.32e-02h  1
iter    objective    inf_pr   inf_du lg(mu)  ||d||  lg(rg) alpha_du alpha_pr  ls
 170 -6.2479591e-02 7.07e-01 3.69e+05  -6.0 4.87e-01  -2.3 7.23e-02 8.01e-02h  1
 171 -6.2476923e-02 6.06e-01 3.16e+05  -6.0 4.68e-01  -2.8 1.95e-01 1.42e-01h  1
 172 -6.2473991e-02 5.51e-01 2.87e+05  -6.0 4.27e-01  -3.2 9.59e-01 9.23e-02h  1
 173 -6.2466695e-02 3.80e-01 1.98e+05  -6.0 4.41e-01  -3.7 2.42e-01 3.09e-01h  1
 174 -6.2462415e-02 9.89e-02 5.15e+04  -6.0 4.38e-01  -4.2 2.11e-01 7.40e-01h  1
 175 -6.2474492e-02 7.06e-02 3.68e+04  -6.0 5.87e-01  -4.7 1.00e+00 2.86e-01h  1
 176 -6.2534477e-02 5.99e-03 3.11e+03  -6.0 1.06e+00  -5.1 1.00e+00 9.15e-01h  1
 177 -6.2625888e-02 3.21e-03 1.67e+03  -6.0 2.72e+00  -5.6 1.00e+00 4.64e-01f  1
 178 -6.2899878e-02 5.05e-02 3.46e+02  -6.0 6.87e+00  -6.1 1.00e+00 7.95e-01f  1
 179 -6.3311781e-02 1.50e+00 1.98e+01  -6.0 1.74e+01  -6.6 7.82e-01 1.00e+00f  1
iter    objective    inf_pr   inf_du lg(mu)  ||d||  lg(rg) alpha_du alpha_pr  ls
 180 -6.3799692e-02 2.50e+00 7.83e+00  -6.0 1.01e+02  -7.1 1.88e-01 1.65e-01h  1
 181 -6.4648861e-02 4.45e+00 9.35e+00  -6.0 2.32e+01  -6.6 1.00e+00 1.00e+00h  1
 182 -6.5142519e-02 1.10e+00 4.56e+01  -6.0 1.04e+01  -6.2 6.23e-01 8.82e-01h  1
 183 -6.6711724e-02 1.96e+01 8.10e+01  -6.0 6.64e+01  -6.7 5.88e-01 7.02e-01h  1
 184 -6.7533271e-02 1.74e+01 9.96e+02  -6.0 6.35e+01  -7.2 6.62e-01 2.58e-01h  1
 185 -6.8955456e-02 3.03e+01 4.10e+02  -6.0 4.96e+02  -7.6 1.04e-01 4.63e-02h  1
 186 -6.8922876e-02 3.00e+01 5.13e+02  -6.0 4.16e+02  -6.3 8.13e-03 1.02e-02h  1
 187 -7.1244887e-02 3.94e+01 6.02e+02  -6.0 3.60e+01  -6.8 9.58e-03 8.49e-01h  1
 188 -7.1970588e-02 3.10e+01 4.74e+02  -6.0 1.01e+02  -7.3 6.06e-01 2.18e-01h  1
 189 -7.3949495e-02 1.94e+01 3.03e+02  -6.0 1.64e+02  -7.7 1.56e-01 3.60e-01h  1
iter    objective    inf_pr   inf_du lg(mu)  ||d||  lg(rg) alpha_du alpha_pr  ls
 190 -7.4981079e-02 1.79e+01 2.79e+02  -6.0 1.28e+03  -8.2 9.35e-02 8.03e-02h  1
 191 -7.8167477e-02 6.64e+00 1.14e+02  -6.0 2.08e+02  -7.8 6.16e-02 6.19e-01h  1
 192 -8.0072522e-02 2.27e-01 3.02e+01  -6.0 7.77e+01  -7.4 9.24e-01 1.00e+00h  1
 193 -8.3447633e-02 1.06e+00 1.56e+01  -6.0 3.07e+02  -7.8 1.34e-01 5.04e-01h  1
 194 -9.0791379e-02 3.55e+00 3.83e+01  -6.0 1.29e+03  -8.3 3.43e-01 2.39e-01h  1
 195 -9.4120404e-02 2.34e+01 6.80e+02  -6.0 4.56e+04  -8.8 1.89e-02 2.26e-02h  1
 196 -9.4843991e-02 2.29e+01 9.03e+03  -6.0 1.35e+03  -8.4 7.47e-02 1.93e-02h  1
 197 -9.5583266e-02 2.21e+01 9.71e+03  -6.0 6.85e+02  -7.9 1.70e-01 3.61e-02h  1
 198 -9.5649850e-02 2.20e+01 1.36e+04  -6.0 1.09e+03  -8.4 4.39e-03 5.37e-03h  1
 199 -9.6326888e-02 2.04e+01 1.80e+04  -6.0 3.24e+02  -8.0 5.36e-03 7.10e-02h  1
iter    objective    inf_pr   inf_du lg(mu)  ||d||  lg(rg) alpha_du alpha_pr  ls
 200 -9.6349447e-02 2.04e+01 1.79e+04  -6.0 1.82e+03  -8.5 6.84e-03 1.63e-03h  1
 201 -9.6413332e-02 2.01e+01 1.77e+04  -6.0 6.70e+02  -8.0 1.37e-03 1.29e-02h  1
 202 -9.6712750e-02 1.97e+01 1.73e+04  -6.0 5.08e+03  -8.5 6.73e-03 2.25e-02h  1
 203 -9.8799750e-02 1.18e+01 9.68e+03  -6.0 4.60e+02  -8.1 3.79e-02 4.39e-01h  1
 204 -9.9073761e-02 1.15e+01 9.46e+03  -6.0 1.86e+03  -8.6 1.02e-01 2.26e-02h  1
Error in an AMPL evaluation. Run with "halt_on_ampl_error yes" to see details.
Warning: Cutting back alpha due to evaluation error
 205 -9.9644587e-02 9.99e+00 8.14e+03  -6.0 4.50e+02  -8.1 7.52e-02 1.39e-01h  2
 206 -1.0282963e-01 9.38e+00 5.75e+03  -6.0 1.20e+03  -8.6 3.25e-02 2.94e-01h  1
 207 -1.0573520e-01 7.24e+00 3.23e+03  -6.0 4.07e+03  -8.2 2.36e-05 4.39e-01H  1
 208 -1.0629713e-01 1.06e+01 1.20e+04  -6.0 2.00e+03  -8.7 6.40e-02 2.69e-01f  1
 209 -1.0734455e-01 7.69e+00 9.54e+03  -6.0 4.51e+02  -8.2 6.54e-01 3.04e-01h  1
iter    objective    inf_pr   inf_du lg(mu)  ||d||  lg(rg) alpha_du alpha_pr  ls
 210 -1.0778851e-01 7.41e+00 8.21e+03  -6.0 1.26e+03  -8.7 4.74e-01 4.39e-02h  1
 211 -1.1026533e-01 4.94e+00 1.84e+03  -6.0 5.03e+02  -8.3 5.71e-01 1.00e+00h  1
 212 -1.1083748e-01 4.68e+00 1.70e+03  -6.0 1.06e+03  -8.8 1.00e+00 8.00e-02h  1
 213 -1.1383644e-01 3.31e+00 4.93e+01  -6.0 4.20e+02  -8.4 1.00e+00 1.00e+00h  1
 214 -1.1544315e-01 3.31e+00 2.76e+01  -6.0 8.04e+02  -8.8 6.80e-01 2.77e-01h  1
 215 -1.1641397e-01 2.44e+00 1.52e+01  -6.0 9.02e+02  -8.4 1.17e-01 3.48e-01h  1
 216 -1.1708956e-01 2.22e+00 5.74e+01  -6.0 7.03e+02  -8.9 9.72e-01 1.69e-01h  1
 217 -1.1818126e-01 1.77e+00 3.87e+01  -6.0 2.72e+02  -8.5 1.90e-01 1.00e+00h  1
 218 -1.1880502e-01 8.26e-01 1.52e+00  -6.0 2.13e+02  -8.0 1.00e+00 1.00e+00h  1
 219 -1.2007014e-01 1.03e+00 5.97e+00  -6.0 2.64e+02  -8.5 1.00e+00 1.00e+00h  1
iter    objective    inf_pr   inf_du lg(mu)  ||d||  lg(rg) alpha_du alpha_pr  ls
 220 -1.2063752e-01 8.80e-01 1.18e+01  -6.0 7.95e+02  -9.0 3.69e-02 2.20e-01h  1
 221 -1.2071340e-01 1.62e+00 4.33e+01  -6.0 5.99e+02  -8.6 5.71e-01 1.76e-01h  1
 222 -1.2222660e-01 1.31e+00 5.62e+01  -6.0 7.75e+02  -9.0 1.32e-02 6.27e-01h  1
 223 -1.2222556e-01 1.27e+00 1.20e+03  -6.0 3.52e+02  -8.6 2.56e-01 5.55e-02h  1
 224 -1.2237118e-01 1.39e+00 1.13e+03  -6.0 2.21e+03  -9.1 3.68e-02 4.57e-02h  1
 225 -1.2266524e-01 9.74e-01 7.67e+02  -6.0 2.41e+02  -8.7 3.21e-01 3.52e-01h  1
 226 -1.2321760e-01 1.01e+00 5.66e+02  -6.0 6.33e+02  -9.1 3.55e-01 2.60e-01h  1
 227 -1.2388200e-01 7.71e-01 1.20e+02  -6.0 2.23e+02  -8.7 7.75e-01 7.66e-01h  1
 228 -1.2417861e-01 1.07e+00 1.05e+02  -6.0 1.01e+03  -9.2 1.98e-01 1.39e-01h  1
 229 -1.2515438e-01 4.20e+00 9.09e+01  -6.0 2.86e+03  -9.7 1.45e-01 1.39e-01h  1
iter    objective    inf_pr   inf_du lg(mu)  ||d||  lg(rg) alpha_du alpha_pr  ls
 230 -1.2569694e-01 3.78e+00 1.12e+02  -6.0 7.32e+02  -9.2 1.01e-01 2.78e-01h  1
 231 -1.2574519e-01 2.68e+00 1.53e+04  -6.0 1.60e+02  -7.0 5.37e-03 2.97e-01h  1
 232 -1.2576316e-01 1.25e+00 7.45e+03  -6.0 6.39e+01  -7.5 8.37e-01 5.33e-01h  1
 233 -1.2576547e-01 1.21e+00 6.46e+03  -6.0 4.45e+01  -8.0 6.26e-01 3.23e-02h  1
 234 -1.2606107e-01 2.55e-01 2.29e+01  -6.0 1.07e+02  -8.4 4.01e-01 1.00e+00h  1
 235 -1.2664897e-01 1.80e+00 2.23e+01  -6.0 4.55e+02  -8.9 3.50e-01 6.15e-01h  1
 236 -1.2838122e-01 6.07e+00 1.16e+03  -6.0 1.11e+03  -9.4 5.02e-01 6.14e-01h  1
 237 -1.2975021e-01 2.85e+00 8.35e+03  -6.0 4.94e+02  -9.0 2.13e-03 1.00e+00h  1
 238 -1.2984179e-01 2.83e+00 8.03e+03  -6.0 1.00e+04  -9.4 6.81e-02 6.75e-03h  1
 239 -1.3134157e-01 4.80e+00 3.53e+03  -6.0 5.30e+02  -9.0 2.16e-01 1.00e+00h  1
iter    objective    inf_pr   inf_du lg(mu)  ||d||  lg(rg) alpha_du alpha_pr  ls
 240 -1.3144562e-01 4.74e+00 3.36e+03  -6.0 4.09e+03  -9.5 1.40e-01 1.69e-02h  1
 241 -1.3225163e-01 4.29e+00 3.06e+03  -6.0 4.94e+02  -9.1 1.97e-01 1.00e+00h  1
 242 -1.3321022e-01 7.32e+00 1.91e+03  -6.0 2.06e+03  -9.5 4.37e-01 2.35e-01h  1
 243 -1.3481918e-01 7.11e+00 1.53e+03  -6.0 4.31e+03 -10.0 1.20e-01 2.16e-01h  1
 244 -1.3498070e-01 6.85e+00 1.55e+03  -6.0 1.10e+04 -10.5 8.21e-02 3.87e-02h  1
 245 -1.3505848e-01 6.61e+00 1.61e+03  -6.0 3.38e+03 -11.0 3.83e-01 3.44e-02h  1
 246 -1.3564448e-01 6.62e+01 9.63e+02  -6.0 6.74e+03    -  5.37e-02 3.27e-01h  1
 247 -1.3569701e-01 6.40e+01 2.23e+03  -6.0 1.53e+03    -  2.00e-01 3.42e-02h  1
 248 -1.3599706e-01 5.60e+01 4.64e+03  -6.0 7.52e+03    -  4.70e-02 1.25e-01h  1
 249 -1.3604654e-01 5.20e+01 4.50e+03  -6.0 1.79e+03    -  4.68e-02 7.19e-02h  1
iter    objective    inf_pr   inf_du lg(mu)  ||d||  lg(rg) alpha_du alpha_pr  ls
 250 -1.3631937e-01 3.92e+01 3.90e+03  -6.0 1.23e+03    -  1.09e-01 2.51e-01h  1
 251 -1.3706699e-01 8.91e+00 2.16e+03  -6.0 1.52e+03    -  1.47e-02 9.24e-01h  1
 252 -1.3689598e-01 5.02e-01 2.81e+03  -6.0 1.68e+02  -7.8 6.27e-03 1.00e+00h  1
 253 -1.3711764e-01 3.32e+00 2.61e+03  -6.0 9.93e+03    -  6.98e-02 6.66e-02h  1
 254 -1.3701859e-01 2.91e+00 2.55e+03  -6.0 2.09e+03    -  7.36e-03 2.43e-01H  1
 255 -1.3699363e-01 1.38e-01 1.66e+03  -6.0 4.55e+02    -  3.17e-01 1.00e+00H  1
 256 -1.3698051e-01 1.09e-02 1.05e-01  -6.0 2.87e+01  -8.3 1.00e+00 1.00e+00h  1
 257 -1.3697125e-01 2.36e+00 7.82e+00  -6.0 7.71e+03    -  6.33e-02 3.93e-02h  2
 258 -1.3696753e-01 1.41e+00 2.42e+01  -6.0 1.28e+03    -  8.44e-01 1.75e-01h  1
 259 -1.3693648e-01 9.40e+00 1.27e+01  -6.0 7.94e+02    -  3.07e-01 1.00e+00h  1
iter    objective    inf_pr   inf_du lg(mu)  ||d||  lg(rg) alpha_du alpha_pr  ls
 260 -1.3694926e-01 1.50e+01 4.22e+01  -6.0 1.08e+03    -  5.10e-01 1.00e+00H  1
 261 -1.3694484e-01 1.23e+00 7.89e+00  -6.0 2.94e+02    -  1.00e+00 1.00e+00h  1
 262 -1.3707902e-01 2.14e+01 8.56e+01  -6.0 1.17e+03    -  6.20e-01 1.00e+00H  1
 263 -1.3701122e-01 9.57e+00 5.48e+01  -6.0 5.60e+02    -  1.00e+00 5.00e-01h  2
 264 -1.3695928e-01 2.17e+00 2.46e+00  -6.0 3.78e+02    -  1.00e+00 1.00e+00h  1
 265 -1.3699046e-01 6.99e-02 2.55e+01  -6.0 1.56e+01  -8.8 1.00e+00 1.00e+00h  1
 266 -1.3699744e-01 7.25e-02 2.13e+00  -6.0 6.66e+01  -9.3 1.00e+00 1.00e+00h  1
 267 -1.3702326e-01 1.32e+00 4.02e+01  -6.0 2.83e+02  -9.7 1.00e+00 1.00e+00h  1
 268 -1.3705771e-01 3.03e+00 8.13e+01  -6.0 2.45e+04 -10.2 2.04e-02 1.32e-02h  3
 269 -1.3750313e-01 1.33e+01 6.42e+02  -6.0 2.21e+03  -9.8 2.26e-01 1.00e+00H  1
iter    objective    inf_pr   inf_du lg(mu)  ||d||  lg(rg) alpha_du alpha_pr  ls
 270 -1.3713354e-01 8.72e-01 3.93e+01  -6.0 4.09e+02  -9.4 1.00e+00 8.99e-01h  1
 271 -1.3716591e-01 2.21e+00 7.36e+01  -6.0 2.66e+04    -  1.43e-02 1.04e-02h  3
 272 -1.3719120e-01 2.61e+00 7.37e+01  -6.0 2.81e+03    -  1.65e-01 6.14e-02h  3
 273 -1.3736608e-01 7.89e-01 3.05e+01  -6.0 2.54e+02    -  1.00e+00 8.63e-01h  1
 274 -1.3739068e-01 5.50e-01 7.11e+00  -6.0 1.74e+02    -  1.00e+00 1.00e+00h  1
 275 -1.3739186e-01 1.16e-01 7.82e-02  -6.0 7.95e+01  -9.9 1.00e+00 1.00e+00h  1
 276 -1.3739550e-01 1.16e-01 2.80e-01  -6.0 1.43e+02    -  1.00e+00 1.00e+00H  1
 277 -1.3739472e-01 5.50e-02 1.49e-02  -6.0 5.50e+01    -  1.00e+00 1.00e+00h  1
 278 -1.3739495e-01 9.08e-04 4.90e-04  -6.0 7.13e+00    -  1.00e+00 1.00e+00h  1
 279 -1.3739495e-01 2.05e-07 1.06e-07  -6.0 1.07e-01    -  1.00e+00 1.00e+00h  1
iter    objective    inf_pr   inf_du lg(mu)  ||d||  lg(rg) alpha_du alpha_pr  ls
 280 -1.3796119e-01 8.28e+00 5.13e+01  -7.5 4.35e+03    -  9.21e-02 1.67e-01f  1
 281 -1.3812621e-01 8.17e+00 4.55e+01  -7.5 2.68e+03    -  3.29e-01 8.75e-02h  1
 282 -1.3849076e-01 6.91e+00 5.91e+01  -7.5 9.72e+02 -10.3 4.15e-01 2.65e-01h  1
 283 -1.3873702e-01 1.20e+01 4.30e+01  -7.5 3.89e+03    -  1.20e-01 2.09e-01h  1
 284 -1.3879366e-01 1.15e+01 4.48e+01  -7.5 3.39e+03    -  5.86e-02 3.57e-02h  1
 285 -1.3895677e-01 1.11e+01 3.50e+01  -7.5 2.26e+03    -  9.07e-02 2.18e-01h  1
 286 -1.3899531e-01 1.12e+01 3.17e+01  -7.5 5.24e+03 -10.8 1.32e-02 6.53e-02h  1
 287 -1.3906840e-01 9.33e+00 3.19e+01  -7.5 5.55e+02 -10.4 3.31e-01 1.70e-01h  1
 288 -1.3924363e-01 1.16e+01 2.16e+01  -7.5 1.94e+03    -  1.24e-01 3.71e-01h  1
 289 -1.3927135e-01 1.06e+01 2.06e+01  -7.5 2.50e+02 -10.0 1.30e-01 8.61e-02h  1
iter    objective    inf_pr   inf_du lg(mu)  ||d||  lg(rg) alpha_du alpha_pr  ls
 290 -1.3938150e-01 1.04e+01 3.90e+01  -7.5 1.62e+03    -  5.15e-03 2.43e-01h  1
 291 -1.3941423e-01 9.42e+00 3.65e+01  -7.5 2.55e+03    -  8.16e-02 9.28e-02h  1
 292 -1.3944230e-01 8.53e+00 2.75e+01  -7.5 1.25e+03    -  1.55e-01 9.42e-02h  1
 293 -1.3946936e-01 7.73e+00 3.20e+01  -7.5 1.25e+03    -  1.99e-04 9.38e-02h  1
 294 -1.3951033e-01 6.56e+00 2.77e+01  -7.5 1.09e+03    -  1.45e-01 1.52e-01h  1
 295 -1.3955794e-01 5.37e+00 4.06e+01  -7.5 9.21e+02    -  4.77e-01 1.81e-01h  1
 296 -1.3969273e-01 2.59e+00 9.24e+01  -7.5 7.98e+02    -  9.48e-01 5.30e-01h  1
 297 -1.3992856e-01 2.77e+00 2.13e+02  -7.5 3.69e+02    -  2.61e-01 1.00e+00h  1
 298 -1.4015039e-01 1.69e+00 8.71e+02  -7.5 2.56e+02    -  2.50e-01 9.61e-01h  1
 299 -1.4017830e-01 1.48e+00 3.71e+02  -7.5 2.87e+02    -  4.85e-01 1.27e-01h  1
iter    objective    inf_pr   inf_du lg(mu)  ||d||  lg(rg) alpha_du alpha_pr  ls
 300 -1.4026507e-01 6.82e+00 2.45e+02  -7.5 1.90e+03    -  1.88e-01 3.92e-01h  1
 301 -1.4027556e-01 6.49e+00 2.04e+02  -7.5 5.45e+02 -10.4 5.83e-02 4.83e-02h  1
 302 -1.4035957e-01 4.25e+00 1.49e+03  -7.5 3.83e+02 -10.9 8.07e-01 3.89e-01h  1
 303 -1.4045030e-01 5.59e+00 4.96e+02  -7.5 1.24e+03    -  2.63e-01 3.94e-01h  1
 304 -1.4045112e-01 5.63e+00 5.69e+02  -7.5 2.61e+04    -  1.15e-01 3.54e-03h  1
 305 -1.4045184e-01 5.61e+00 5.27e+03  -7.5 5.96e+03    -  3.08e-02 3.22e-03h  1
 306 -1.4047116e-01 4.96e+00 4.49e+03  -7.5 8.95e+02    -  1.53e-01 1.67e-01h  1
 307 -1.4047887e-01 4.16e+00 9.28e+05  -7.5 1.14e+03    -  7.91e-04 2.60e-01h  1
 308 -1.4049749e-01 4.31e+01 2.87e+03  -7.5 1.83e+03    -  7.19e-03 1.00e+00h  1
 309 -1.4050556e-01 4.13e+01 2.57e+03  -7.5 4.20e+03    -  1.09e-01 1.03e-01h  1
iter    objective    inf_pr   inf_du lg(mu)  ||d||  lg(rg) alpha_du alpha_pr  ls
 310 -1.4054161e-01 7.12e+01 1.23e+03  -7.5 2.65e+03    -  4.62e-04 7.88e-01h  1
 311 -1.4053998e-01 7.09e+01 1.18e+03  -7.5 1.65e+04    -  3.47e-02 6.08e-03h  1
 312 -1.4052471e-01 4.24e+01 1.05e+03  -7.5 1.58e+03    -  3.02e-02 5.52e-01h  1
 313 -1.4052453e-01 3.08e+01 9.84e+02  -7.5 1.84e+02    -  2.89e-02 2.73e-01h  1
 314 -1.4052260e-01 2.51e-02 3.61e+02  -7.5 3.22e+01    -  5.88e-01 1.00e+00h  1
 315 -1.4052592e-01 4.01e-01 1.91e+02  -7.5 2.49e+02 -10.5 4.59e-01 6.59e-01h  1
 316 -1.4054329e-01 1.22e+01 1.54e+02  -7.5 9.12e+02 -11.0 1.26e-01 1.00e+00h  1
 317 -1.4057260e-01 5.19e+01 6.89e+01  -7.5 1.84e+03 -11.4 1.00e+00 1.00e+00h  1
 318 -1.4058288e-01 5.17e+01 8.63e+01  -7.5 4.00e+03    -  2.32e-01 1.86e-01h  1
 319 -1.4058809e-01 5.45e+00 3.14e+01  -7.5 5.12e+02    -  1.00e+00 1.00e+00h  1
iter    objective    inf_pr   inf_du lg(mu)  ||d||  lg(rg) alpha_du alpha_pr  ls
 320 -1.4059265e-01 2.03e+00 2.80e+01  -7.5 3.34e+02    -  9.97e-02 1.00e+00h  1
 321 -1.4061561e-01 5.45e+01 1.80e+02  -7.5 2.82e+03 -11.9 2.96e-01 6.16e-01h  1
 322 -1.4060915e-01 3.65e+00 1.61e+04  -7.5 4.85e+02    -  2.41e-03 1.00e+00h  1
 323 -1.4061049e-01 2.72e-01 3.27e+00  -7.5 1.15e+02 -10.6 1.00e+00 1.00e+00h  1
 324 -1.4061952e-01 9.35e+00 3.92e+01  -7.5 6.24e+03    -  3.62e-01 1.10e-01h  1
 325 -1.4061765e-01 3.83e-01 3.47e+00  -7.5 1.48e+02    -  9.39e-01 1.00e+00h  1
 326 -1.4061993e-01 5.86e-01 5.38e+00  -7.5 1.71e+02    -  1.00e+00 1.00e+00h  1
 327 -1.4062005e-01 1.34e-03 9.93e-03  -7.5 7.74e+00    -  1.00e+00 1.00e+00h  1
 328 -1.4062002e-01 1.21e-04 7.95e-04  -7.5 2.46e+00    -  1.00e+00 1.00e+00h  1
 329 -1.4062002e-01 1.39e-08 1.43e-07  -7.5 2.62e-02    -  1.00e+00 1.00e+00h  1
iter    objective    inf_pr   inf_du lg(mu)  ||d||  lg(rg) alpha_du alpha_pr  ls
 330 -1.4062328e-01 9.23e-02 2.40e+00  -9.0 2.59e+02    -  2.88e-01 3.04e-01h  1
 331 -1.4063019e-01 2.10e+01 7.95e+01  -9.0 1.17e+05    -  2.16e-02 8.78e-03h  1
 332 -1.4063790e-01 2.77e+01 1.19e+02  -9.0 3.62e+03    -  1.86e-01 2.32e-01h  1
 333 -1.4064255e-01 2.74e+01 1.26e+02  -9.0 4.34e+03    -  2.91e-01 1.62e-01h  1
 334 -1.4064967e-01 4.42e+01 1.33e+02  -9.0 3.43e+03    -  3.20e-01 3.66e-01h  1
 335 -1.4065356e-01 4.07e+01 2.54e+01  -9.0 1.55e+03    -  1.00e-02 8.19e-01h  1
 336 -1.4065068e-01 1.55e-01 7.70e+00  -9.0 1.02e+02    -  4.01e-02 1.00e+00h  1
 337 -1.4065131e-01 8.47e-02 7.37e-01  -9.0 6.42e+01    -  1.00e+00 1.00e+00h  1
 338 -1.4065130e-01 2.12e-02 8.98e-02  -9.0 3.22e+01    -  1.00e+00 1.00e+00h  1
 339 -1.4065129e-01 6.76e-08 1.75e-05  -9.0 3.78e-02    -  1.00e+00 1.00e+00h  1
iter    objective    inf_pr   inf_du lg(mu)  ||d||  lg(rg) alpha_du alpha_pr  ls
 340 -1.4065129e-01 2.80e-10 2.61e-12  -9.0 2.73e-05    -  1.00e+00 1.00e+00h  1

Number of Iterations....: 340

                                   (scaled)                 (unscaled)
Objective...............:  -1.4065129338054919e-01   -1.4065129338054919e-01
Dual infeasibility......:   2.6071127272016617e-12    2.6071127272016617e-12
Constraint violation....:   2.7968508487918181e-10    2.7968508487918181e-10
Complementarity.........:   9.0909098744871492e-10    9.0909098744871492e-10
Overall NLP error.......:   9.0909098744871492e-10    9.0909098744871492e-10


Number of objective function evaluations             = 570
Number of objective gradient evaluations             = 341
Number of equality constraint evaluations            = 571
Number of inequality constraint evaluations          = 571
Number of equality constraint Jacobian evaluations   = 348
Number of inequality constraint Jacobian evaluations = 348
Number of Lagrangian Hessian evaluations             = 340
Total CPU secs in IPOPT (w/o function evaluations)   =    245.020
Total CPU secs in NLP function evaluations           =      5.899

EXIT: Optimal Solution Found.
